/*********************************************
 * OPL 22.1.1.0 Data
 * Author: filippostruffi
 * Creation Date: Feb 6, 2025 at 5:29:15 PM
 *********************************************/

load_value = [3.1, 3.2, 3.45, 4.15,3.25, 2.75];
volume_load_value = [0.125,0.064,0.144,0.448,0.048,0.018];
weight_limit = 15000;
volume_limit = 1300;
max_supply = [5000,4500,3000,3500,4000,3500];